LAMMPS (10 Sep 2010)
# GayBerne ellipsoids in LJ background fluid

units	     lj
atom_style   ellipsoid
dimension    2

lattice	     sq 0.02
Lattice spacing in x,y,z = 7.07107 7.07107 7.07107
region	     box block 0 20 0 20 -0.5 0.5
create_box   2 box
Created orthogonal box = (0 0 -3.53553) to (141.421 141.421 3.53553)
  1 by 1 by 1 processor grid
create_atoms 1 box
Created 400 atoms

set	     group all type/fraction 2 0.1 95392
  45 settings made for type/fraction
set	     group all quat/random 18238
  400 settings made for quat/random

mass	     1 1.0
mass	     2 1.5
shape	     1 1 1 1
shape	     2 3 1 1

compute	     rot all temp/asphere
group	     spheroid type 1
355 atoms in group spheroid
variable     dof equal count(spheroid)+2
compute_modify rot extra ${dof}
compute_modify rot extra 357

velocity     all create 2.4 87287 loop geom

pair_style   gayberne 1.0 3.0 1.0 4.0
pair_coeff   1 1 3.0 1.0 1 1 1 1 1 1 2.5
pair_coeff   1 2 3.0 1.0 1 1 1 0 0 0
pair_coeff   2 2 1.0 1.0 1 1 0.2 0 0 0

#pair_style   resquared 4.0
#pair_coeff   1 1 3.0 1 1 1 1 1 1 1 2.5
#pair_coeff   1 2 3.0 1 1 1 1 0 0 0
#pair_coeff   2 2 1.0 1 1 1 0.2 0 0 0

neighbor     0.8 bin

thermo_style custom step c_rot epair etotal press vol
thermo	     100

timestep     0.002

dump	     1 all custom 100 dump.ellipse.gayberne 	     id type x y z quatw quati quatj quatk

#dump	     1 all custom 100 dump.ellipse.resquared #	     id type x y z quatw quati quatj quatk

fix	     1 all npt/asphere temp 2.0 2.0 0.1 iso 0.0 1.0 1.0 	       mtk no pchain 0 tchain 1
fix	     2 all enforce2d

compute_modify 1_temp extra ${dof}
compute_modify 1_temp extra 357

# equilibrate to shrink box around dilute system

run	     2000
Memory usage per processor = 2.5914 Mbytes
Step rot E_pair TotEng Press Volume 
       0    2.2718861            0        2.394      0.04788        20000 
     100    1.7443002            0    1.8380563   0.03576216    20558.672 
     200    2.2770454            0    2.3994366  0.046545139    20620.298 
     300    1.8573283            0    1.9571597   0.04240689    18460.771 
     400    2.1709963 -0.00050890768    2.2871782  0.066789189    13689.461 
     500     1.987484 -0.043660052    2.0342913  0.099199049    8475.4405 
     600     2.088535  -0.24318266    1.8270941   0.22391583    4674.8592 
     700    2.2604089  -0.73325761     1.481207   0.57184109     2507.095 
     800    1.8731398   -1.6161576   0.22080738    1.3049285    1420.4278 
     900    2.1404423   -3.0146759  -0.84039269    3.3566833    922.07169 
    1000    1.5927835   -4.5754144   -2.9697785    2.5493591    743.19289 
    1100    1.8380043   -4.8820159   -3.0604394    2.2950846      708.014 
    1200      2.05516   -4.5701279   -2.4718822     1.466469    753.52878 
    1300    2.0000364   -4.0755503    -2.031995   0.35675413    842.14053 
    1400    2.1055032   -3.7342781   -1.6632699   0.58193577    925.51606 
    1500    1.9241806    -3.582658    -1.639377   0.24973032    1006.7339 
    1600     2.125676   -3.4733166   -1.3572836   0.72069214    1061.1355 
    1700    1.8811354   -3.2933821   -1.4183258   0.59272021    1119.2646 
    1800    2.1014782   -3.1254259   -1.0248797   0.95254771    1162.1817 
    1900    1.8977855   -3.1905908   -1.2727444   0.73157369    1191.4876 
    2000    2.0794708    -3.253147   -1.2230906    0.4949131    1187.4615 
Loop time of 1.30884 on 1 procs for 2000 steps with 400 atoms

Pair  time (%) = 0.952548 (72.7779)
Neigh time (%) = 0.013696 (1.04642)
Comm  time (%) = 0.0215304 (1.64499)
Outpt time (%) = 0.0359268 (2.74493)
Other time (%) = 0.285141 (21.7858)

Nlocal:    400 ave 400 max 400 min
Histogram: 1 0 0 0 0 0 0 0 0 0
Nghost:    232 ave 232 max 232 min
Histogram: 1 0 0 0 0 0 0 0 0 0
Neighs:    2841 ave 2841 max 2841 min
Histogram: 1 0 0 0 0 0 0 0 0 0

Total # of neighbors = 2841
Ave neighs/atom = 7.1025
Neighbor list builds = 113
Dangerous builds = 67

# run dynamics on dense system

unfix	     1
fix	     1 all nve/asphere

run	     2000
Memory usage per processor = 2.5919 Mbytes
Step rot E_pair TotEng Press Volume 
    2000    2.0794708    -3.253147   -1.2230906    0.4949131    1187.4615 
    2100    2.0350673   -3.2084761   -1.1823685   0.33981978    1187.4615 
    2200    1.9674878   -3.1385619   -1.1467435    1.1720135    1187.4615 
    2300    2.0160349    -3.191283   -1.1652127   0.98222377    1187.4615 
    2400    2.1323062   -3.3152815   -1.1669961   0.76099917    1187.4615 
    2500    2.0866913   -3.2692051   -1.1766062    0.6797155    1187.4615 
    2600    2.0982812   -3.2774418   -1.1869912   0.90455134    1187.4615 
    2700    2.0482784   -3.2229462   -1.1928893   0.69425527    1187.4615 
    2800    1.9676346   -3.1400423   -1.1685862   0.75778835    1187.4615 
    2900    2.0421411   -3.2182329   -1.1866963   0.79381674    1187.4615 
    3000    2.1073559   -3.2869407   -1.2013055   0.18893562    1187.4615 
    3100    2.0468453   -3.2229404   -1.1821116   0.70458867    1187.4615 
    3200    2.1166879   -3.2985325    -1.159073   0.51919599    1187.4615 
    3300    2.1527585   -3.3389572    -1.180475   0.44970591    1187.4615 
    3400    2.0956211   -3.2784255   -1.1607036   0.75627973    1187.4615 
    3500     2.063738   -3.2448965   -1.1420635   0.78186246    1187.4615 
    3600    2.0246795   -3.2012507   -1.1667763   0.50966608    1187.4615 
    3700    2.0087852   -3.1823948   -1.1852897   0.29189471    1187.4615 
    3800    1.9295508   -3.0983748   -1.1907953   0.65381596    1187.4615 
    3900    2.0297463    -3.204339   -1.1739877   0.53012636    1187.4615 
    4000    2.0567192   -3.2312828   -1.1730419   0.80655975    1187.4615 
Loop time of 1.45039 on 1 procs for 2000 steps with 400 atoms

Pair  time (%) = 1.18757 (81.8791)
Neigh time (%) = 0.00844502 (0.582259)
Comm  time (%) = 0.0234499 (1.6168)
Outpt time (%) = 0.0363569 (2.5067)
Other time (%) = 0.194572 (13.4151)

Nlocal:    400 ave 400 max 400 min
Histogram: 1 0 0 0 0 0 0 0 0 0
Nghost:    222 ave 222 max 222 min
Histogram: 1 0 0 0 0 0 0 0 0 0
Neighs:    2927 ave 2927 max 2927 min
Histogram: 1 0 0 0 0 0 0 0 0 0

Total # of neighbors = 2927
Ave neighs/atom = 7.3175
Neighbor list builds = 47
Dangerous builds = 0
